c This is an instance of the exact track of PACE 2020 Challenge, see https://pacechallenge.org/2020/ 
c TYPE: biology 
c ORIGIN: ginsim.org/models_repository 
c DESCRIPTION: nan 
p tdp 53 100
15 27
15 50
15 8
15 34
15 4
15 16
15 46
15 48
15 51
15 35
15 38
27 39
27 19
27 22
27 9
27 23
27 52
4 41
4 10
4 17
41 33
41 17
41 12
41 26
32 44
32 28
32 18
32 25
32 47
44 7
44 13
44 2
44 11
44 40
12 31
12 50
12 29
31 10
17 25
17 36
17 29
17 45
17 26
17 19
17 8
25 2
50 10
33 21
33 38
33 8
1 45
1 3
1 42
45 20
29 34
29 46
29 36
34 49
34 10
7 28
7 2
7 47
7 14
28 49
28 47
10 35
10 51
10 5
10 48
10 38
35 11
8 43
36 42
36 47
36 49
24 39
39 51
22 48
22 53
3 40
3 49
3 13
6 23
23 20
23 42
42 52
42 43
42 21
42 5
42 9
16 43
13 26
13 49
11 30
11 53
21 19
5 19
43 37
43 20
37 9
